
Gurobi 12.0.3 (linux64, C++) logging started Wed Aug 13 18:27:46 2025

Set parameter WLSAccessID
Set parameter WLSSecret
Set parameter LicenseID to value 2399409
Set parameter LogFile to value "LogisticRegressionLog.log"
Academic license 2399409 - for non-commercial use only - registered to sp___@umich.edu

Gurobi 12.0.3 (linux64, C++) logging started Wed Aug 13 18:30:29 2025

Set parameter WLSAccessID
Set parameter WLSSecret
Set parameter LicenseID to value 2399409
Set parameter LogFile to value "LogisticRegressionLog.log"
Academic license 2399409 - for non-commercial use only - registered to sp___@umich.edu
Gurobi Optimizer version 12.0.3 build v12.0.3rc0 (linux64 - "Arch Linux")

CPU model: AMD Ryzen 9 5900X 12-Core Processor, instruction set [SSE2|AVX|AVX2]
Thread count: 12 physical cores, 24 logical processors, using up to 24 threads

Academic license 2399409 - for non-commercial use only - registered to sp___@umich.edu
Optimize a model with 147 rows, 7375 columns and 349042 nonzeros
Model fingerprint: 0x263aa2e0
Model has 7129 quadratic objective terms
Model has 98 function constraints treated as nonlinear
  49 EXP, 49 LOG
Variable types: 7375 continuous, 0 integer (0 binary)
Coefficient statistics:
  Matrix range     [1e+00, 5e+05]
  Objective range  [2e-02, 2e-02]
  QObjective range [1e+01, 1e+01]
  Bounds range     [1e+00, 1e+00]
  RHS range        [1e+00, 1e+00]
Presolve removed 49 rows and 49 columns
Presolve time: 0.07s
Presolved: 588 rows, 7327 columns, 349899 nonzeros
Presolved model has 7129 quadratic objective terms
Presolved model has 98 nonlinear constraint(s)
Warning: Model contains variables with very large bounds participating
         in nonlinear terms.
         Presolve was not able to compute smaller bounds for these variables.
         Consider bounding these variables or reformulating the model.


Solving non-convex MINLP

Variable types: 7327 continuous, 0 integer (0 binary)

Root relaxation: unbounded, 212 iterations, 0.09 seconds (0.21 work units)

    Nodes    |    Current Node    |     Objective Bounds      |     Work
 Expl Unexpl |  Obj  Depth IntInf | Incumbent    BestBd   Gap | It/Node Time

     0     0  postponed    0               -          -      -     -    0s
     0     0  postponed    0               -          -      -     -    0s
     0     2  postponed    0               -          -      -     -    0s
   156   361  postponed    9               -          -      -  23.6    7s
   360   734  postponed   16               -          -      -  10.8   15s

Gurobi 12.0.3 (linux64, C++) logging started Wed Aug 13 18:31:03 2025

Set parameter WLSAccessID
Set parameter WLSSecret
Set parameter LicenseID to value 2399409
Set parameter LogFile to value "LogisticRegressionLog.log"
Academic license 2399409 - for non-commercial use only - registered to sp___@umich.edu
Gurobi Optimizer version 12.0.3 build v12.0.3rc0 (linux64 - "Arch Linux")

CPU model: AMD Ryzen 9 5900X 12-Core Processor, instruction set [SSE2|AVX|AVX2]
Thread count: 12 physical cores, 24 logical processors, using up to 24 threads

Academic license 2399409 - for non-commercial use only - registered to sp___@umich.edu
Optimize a model with 147 rows, 7375 columns and 349042 nonzeros
Model fingerprint: 0x263aa2e0
Model has 7129 quadratic objective terms
Model has 98 function constraints treated as nonlinear
  49 EXP, 49 LOG
Variable types: 7375 continuous, 0 integer (0 binary)
Coefficient statistics:
  Matrix range     [1e+00, 5e+05]
  Objective range  [2e-02, 2e-02]
  QObjective range [1e+01, 1e+01]
  Bounds range     [1e+00, 1e+00]
  RHS range        [1e+00, 1e+00]
Presolve removed 49 rows and 49 columns
Presolve time: 0.07s
Presolved: 588 rows, 7327 columns, 349899 nonzeros
Presolved model has 7129 quadratic objective terms
Presolved model has 98 nonlinear constraint(s)
Warning: Model contains variables with very large bounds participating
         in nonlinear terms.
         Presolve was not able to compute smaller bounds for these variables.
         Consider bounding these variables or reformulating the model.


Solving non-convex MINLP

Variable types: 7327 continuous, 0 integer (0 binary)

Root relaxation: unbounded, 212 iterations, 0.09 seconds (0.21 work units)

    Nodes    |    Current Node    |     Objective Bounds      |     Work
 Expl Unexpl |  Obj  Depth IntInf | Incumbent    BestBd   Gap | It/Node Time

     0     0  postponed    0               -          -      -     -    0s
     0     0  postponed    0               -          -      -     -    0s
     0     2  postponed    0               -          -      -     -    0s
   156   361  postponed    9               -          -      -  23.6    7s
   360   734  postponed   16               -          -      -  10.8   15s
   733  1391  postponed   31               -          -      -   9.2   35s
  1390  1859  postponed   62               -          -      -   6.8   64s
  2178  2299  postponed   98               -          -      -   6.2   94s
  2886  2705  postponed  134               -          -      -   5.5  133s
  3440  2925  postponed  173               -          -      -   5.3  183s
  3736  3028 infeasible  196               -          -      -   5.3  234s
  3917  3035  postponed   16               -          -      -   5.5  235s
  4071  3316  postponed   23               -          -      -   6.1  242s
  4251  3601  postponed   30               -          -      -   5.9  249s
  4596  4159  postponed   45               -          -      -   5.8  281s
  5269  4348  postponed   73               -          -      -   5.5  323s
  5724  4418  postponed  123               -          -      -   5.3  379s
  6022  4596 infeasible  142               -          -      -   5.3  437s
  6315  4926 infeasible  180               -          -      -   5.6  503s
  6839  5862  postponed  183               -          -      -   5.3  556s
  7958  6533  postponed  257               -          -      -   5.3  607s
  9110  7142  postponed  265               -          -      -   5.9  659s
 10149  7593  postponed  271               -          -      -   6.1  720s
 10952  8509  postponed  277               -          -      -   5.9  772s
 12218  9431  postponed  274               -          -      -   5.6  820s
 13634 10524 infeasible  336               -          -      -   5.3  872s
 15025 11852 -2.295e+07  277   88          -          -      -   5.1  913s
 16411 13714 infeasible  278               -          -      -   4.8  950s
 18349 15662 -1.973e+07  527   88          -          -      -   4.3  989s
 20365 16537 -1.973e+07  777   88          -          -      -   3.9 1010s
 21244 17460 -1.973e+07  892   88          -          -      -   3.8 1035s
 22228 18510 -1.972e+07 1018   88          -          -      -   3.6 1056s
 23397 19489 -1.972e+07 1158   88          -          -      -   3.5 1067s
 24640 20462 -1.972e+07 1299   88          -          -      -   3.3 1088s
 25645 21430 -1.972e+07 1436   88          -          -      -   3.3 1108s
 26675 22608 -1.971e+07 1580   88          -          -      -   3.3 1127s
 27887 23799 -1.971e+07 1733   88          -          -      -   3.3 1152s
 29108 25100 -1.971e+07 1893   88          -          -      -   3.2 1180s
 30451 26451 -1.971e+07 2065   88          -          -      -   3.1 1209s
 31860 27707 -1.971e+07 2247   88          -          -      -   3.1 1234s
 33422 29030 -1.971e+07 2439   88          -          -      -   3.0 1261s
 34797 30463 -1.971e+07 2640   88          -          -      -   3.0 1297s
 36272 33142 -1.970e+07 2851   88          -          -      -   3.0 1353s
 39081 34685 -1.308e+07 3263   87          -          -      -   2.8 1388s
 40720 36285 -1.307e+07 3497   87          -          -      -   2.7 1426s
 42422 37788 -1.306e+07 3734   87          -          -      -   2.6 1471s
 43936 39609 -1.305e+07 3976   87          -          -      -   2.6 1515s
 45762 41458 -1.304e+07 4235   87          -          -      -   2.5 1547s
 47689 43619 -1.303e+07 4493   87          -          -      -   2.4 1576s
 50081 45708 -1.302e+07 4737   87          -          -      -   2.3 1597s
 52203 47577 -1.302e+07 4956   87          -          -      -   2.2 1625s
 54122 50799 -1.302e+07 5154   87          -          -      -   2.2 1669s
 57414 52183 -1.301e+07 5494   87          -          -      -   2.1 1694s
 58838 53583 -1.301e+07 5642   87          -          -      -   2.0 1722s
 60242 54997 -1.301e+07 5792   87          -          -      -   2.0 1751s
 61702 56470 -9906457.1 5947   86          -          -      -   1.9 1775s
 63177 58042 -9901405.7 6107   86          -          -      -   1.9 1792s
 64831 59653 -9896558.9 6270   86          -          -      -   1.8 1819s
 66484 61244 -9892095.9 6430   86          -          -      -   1.8 1846s
 68089 62776 -9888000.9 6587   86          -          -      -   1.8 1865s
 69709 64260 -9884258.1 6741   86          -          -      -   1.7 1881s
 71505 65669 -9880873.9 6891   86          -          -      -   1.7 1897s
 72987 68573 -9877928.3 7032   86          -          -      -   1.7 1941s
 75954 69759 -9872672.4 7317   86          -          -      -   1.6 1965s
 77416 70957 -9870601.0 7446   86          -          -      -   1.6 1986s
 78627 72189 -9868707.6 7576   86          -          -      -   1.6 2008s
 79907 73488 -9866935.4 7712   86          -          -      -   1.5 2038s
 81233 74829 -9865334.1 7852   86          -          -      -   1.5 2062s
 82608 76162 -9863941.0 7994   86          -          -      -   1.5 2083s
 83981 77505 -9862766.1 8138   86          -          -      -   1.5 2106s
 85358 78854 -9861824.7 8283   86          -          -      -   1.4 2133s
 86741 80213 -9861121.6 8429   86          -          -      -   1.4 2160s
 88132 81613 -9860654.3 8579   86          -          -      -   1.4 2188s
 89540 82908 -9860441.0 8733   86          -          -      -   1.4 2215s
 91107 85091 infeasible 8888               -          -      -   1.4 2248s
 93403 86375  postponed 8934               -          -      -   1.3 2275s
 94716 87838  postponed 8935               -          -      -   1.3 2304s
 96215 89302  postponed 8936               -          -      -   1.3 2337s
 97711 90806  postponed 8937               -          -      -   1.3 2368s
 99260 92292  postponed 8938               -          -      -   1.3 2398s
 100782 94021  postponed 8939               -          -      -   1.3 2427s
 102576 95707  postponed 8940               -          -      -   1.3 2454s
 104282 97301  postponed 8941               -          -      -   1.2 2481s
 105935 98863  postponed 8942               -          -      -   1.2 2510s
 107505 100580 -8099019.9 9184   80          -          -      -   1.2 2534s
 109251 103049  postponed   38               -          -      -   1.2 2561s
 111740 104259  postponed   63               -          -      -   1.2 2574s
 112962 105447  postponed   80               -          -      -   1.2 2595s
 114154 106687 -8070032.4 9804   80          -          -      -   1.2 2615s
 115422 107985 -8065281.9 9923   80          -          -      -   1.2 2635s
 116722 109291 -6.163e+07   82   96          -          -      -   1.1 2654s
 118030 110885 infeasible   83               -          -      -   1.1 2670s
 119626 112410 -3.953e+07  221   95          -          -      -   1.1 2686s
 121153 113869 -3.952e+07  355   95          -          -      -   1.1 2701s
 122613 115316 -3.952e+07  485   95          -          -      -   1.1 2716s
 124061 116729 -3.951e+07  612   95          -          -      -   1.1 2730s
 125474 118116 -3.951e+07  736   95          -          -      -   1.1 2744s
 126861 119475 -3.950e+07  857   95          -          -      -   1.1 2758s
 128220 122096 -3.950e+07  976   95          -          -      -   1.1 2785s
 130842 123266 -3.949e+07 1207   95          -          -      -   1.0 2798s
 132083 124439 -3.949e+07 1314   95          -          -      -   1.0 2810s
 133258 125652 -3.948e+07 1420   95          -          -      -   1.0 2822s
 134473 126863 -3.948e+07 1527   95          -          -      -   1.0 2835s
 135684 128075 -3.948e+07 1633   95          -          -      -   1.0 2847s
 136896 129287 -3.948e+07 1739   95          -          -      -   1.0 2860s
 138108 130500 -3.947e+07 1845   95          -          -      -   1.0 2872s
 139321 131631 -3.947e+07 1951   95          -          -      -   1.0 2885s
 140594 132728 -3.947e+07 2057   95          -          -      -   1.0 2897s
 141886 133827 -3.947e+07 2163   95          -          -      -   1.0 2923s
 142996 134966 -3.947e+07 2268   95          -          -      -   0.9 2949s
 144135 136144 -3.947e+07 2377   95          -          -      -   0.9 2975s
 145313 137357 -3.947e+07 2489   95          -          -      -   0.9 3002s
 146526 139627 -3.947e+07 2604   95          -          -      -   0.9 3042s
 148796 140905 -3.946e+07 2820   95          -          -      -   0.9 3071s
 150286 142181 -2.359e+07 2939   93          -          -      -   0.9 3099s
 151646 143453 -2.358e+07 3071   93          -          -      -   0.9 3128s
 152975 144809 -2.356e+07 3206   93          -          -      -   0.9 3157s
 154332 146174 -2.355e+07 3345   93          -          -      -   0.9 3187s
 155697 147521 -2.354e+07 3486   93          -          -      -   0.9 3217s
 157047 149020 -2.354e+07 3628   93          -          -      -   0.9 3241s
 158548 150539 -2.353e+07 3774   93          -          -      -   0.9 3269s
 160068 152082 -2.352e+07 3919   93          -          -      -   0.9 3285s
 161611 153554 -2.351e+07 4064   93          -          -      -   0.9 3310s
 163113 155019 -2.350e+07 4204   93          -          -      -   0.8 3329s
 164578 157102 -2.350e+07 4344   93          -          -      -   0.8 3352s
 166866 158154 -2.349e+07 4551   93          -          -      -   0.8 3378s
